p edge 50 337 20
v 2 5 31
v 3 10 22 29
v 2 12 17
v 1 16
v 3 8 25 42
v 4 9 21 35 36
v 1 18
v 3 23 37 44
v 3 7 11 27
v 3 6 14 49
v 2 34 39
v 1 40
v 1 20
v 3 3 13 47
v 3 4 15 48
v 3 32 43 50
v 3 24 26 46
v 3 2 19 28
v 3 1 33 38
v 3 30 41 45
e 1 4
e 1 9
e 1 16
e 1 18
e 1 19
e 1 28
e 1 34
e 1 36
e 1 44
e 1 45
e 1 48
e 1 49
e 1 50
e 2 3
e 2 4
e 2 8
e 2 9
e 2 10
e 2 12
e 2 13
e 2 19
e 2 20
e 2 21
e 2 27
e 2 28
e 2 30
e 2 31
e 2 36
e 2 38
e 2 43
e 2 50
e 3 6
e 3 11
e 3 12
e 3 13
e 3 19
e 3 20
e 3 21
e 3 24
e 3 29
e 3 30
e 3 31
e 3 32
e 3 35
e 3 36
e 3 45
e 3 47
e 3 49
e 3 50
e 4 7
e 4 10
e 4 23
e 4 24
e 4 26
e 4 28
e 4 33
e 4 39
e 4 40
e 4 41
e 4 42
e 4 47
e 4 50
e 5 7
e 5 10
e 5 13
e 5 14
e 5 28
e 5 33
e 5 37
e 5 46
e 6 7
e 6 11
e 6 12
e 6 18
e 6 19
e 6 23
e 6 24
e 6 26
e 6 27
e 6 33
e 6 34
e 6 37
e 6 38
e 6 39
e 6 40
e 6 43
e 6 46
e 7 9
e 7 19
e 7 21
e 7 26
e 7 28
e 7 33
e 7 34
e 7 37
e 7 48
e 8 14
e 8 18
e 8 19
e 8 22
e 8 24
e 8 30
e 8 33
e 8 36
e 8 45
e 9 15
e 9 18
e 9 27
e 9 29
e 9 31
e 9 33
e 9 35
e 9 45
e 9 47
e 10 11
e 10 13
e 10 19
e 10 20
e 10 22
e 10 24
e 10 28
e 10 29
e 10 30
e 10 31
e 10 33
e 10 35
e 10 42
e 10 44
e 10 45
e 10 48
e 11 13
e 11 14
e 11 17
e 11 20
e 11 22
e 11 33
e 11 34
e 11 41
e 11 49
e 12 14
e 12 15
e 12 17
e 12 23
e 12 24
e 12 25
e 12 27
e 12 28
e 12 42
e 12 43
e 12 44
e 12 48
e 12 49
e 13 14
e 13 16
e 13 25
e 13 38
e 13 42
e 13 43
e 13 45
e 13 47
e 13 50
e 14 15
e 14 16
e 14 19
e 14 22
e 14 26
e 14 29
e 14 32
e 14 33
e 14 37
e 14 38
e 14 43
e 14 48
e 14 49
e 14 50
e 15 16
e 15 22
e 15 24
e 15 28
e 15 37
e 15 44
e 15 45
e 15 46
e 15 47
e 15 48
e 16 18
e 16 19
e 16 20
e 16 23
e 16 31
e 16 32
e 16 37
e 16 41
e 16 42
e 16 46
e 16 47
e 17 25
e 17 28
e 17 29
e 17 30
e 17 31
e 17 38
e 17 42
e 17 48
e 17 49
e 18 20
e 18 24
e 18 25
e 18 28
e 18 30
e 18 31
e 18 33
e 18 34
e 18 36
e 18 37
e 18 41
e 18 50
e 19 30
e 19 31
e 19 38
e 19 39
e 19 43
e 19 45
e 19 46
e 19 49
e 20 21
e 20 26
e 20 28
e 20 32
e 20 36
e 20 40
e 20 41
e 20 45
e 20 48
e 21 22
e 21 27
e 21 35
e 21 38
e 21 47
e 22 34
e 22 43
e 22 44
e 22 46
e 22 50
e 23 24
e 23 28
e 23 37
e 23 39
e 23 40
e 23 45
e 23 47
e 23 50
e 24 25
e 24 37
e 24 38
e 24 45
e 24 48
e 25 34
e 25 36
e 25 38
e 25 42
e 25 43
e 25 50
e 26 29
e 26 31
e 26 32
e 26 43
e 27 29
e 27 32
e 27 35
e 27 41
e 27 47
e 27 50
e 28 38
e 28 40
e 28 41
e 28 43
e 28 46
e 28 47
e 29 33
e 29 40
e 29 46
e 29 48
e 29 49
e 30 33
e 30 34
e 30 38
e 30 41
e 30 48
e 31 32
e 31 36
e 31 37
e 31 44
e 31 46
e 32 39
e 32 48
e 33 34
e 33 36
e 33 37
e 33 40
e 33 44
e 33 46
e 33 50
e 34 42
e 34 43
e 34 47
e 34 48
e 35 48
e 36 37
e 36 38
e 36 40
e 36 46
e 36 49
e 36 50
e 37 41
e 37 43
e 37 44
e 38 40
e 38 42
e 38 44
e 38 47
e 39 43
e 39 46
e 39 49
e 40 44
e 40 49
e 41 43
e 41 46
e 41 47
e 42 45
e 42 48
e 42 50
e 43 44
e 43 47
e 44 49
e 46 48
e 47 49
